3668545
73,7,204,132,228,214,37,128,142,45,76,227,141,78,75,181,172,24,166,180,187,58,10,188,126,29,21,5,80,74,61,36,129,88,39,27,222,153,133,85,211,40,79,83,87,186,215,64,224,175,115,95,33,34,101,168,54,107,26,3,89,170,203,51,171,110,220,92,196,69,6,191,106,32,108,149,145,159,144,219,178,77,210,209,63,59,137,109,13,2,139,117,96,192,67,100,35,116,0,31,71,161,155,4,25,124,28,184,15,14,136,200,9,190,41,42,189,201,22,177,62,66,146,162,30,217,118,205,176,50,225,135,94,193,208,207,143,19,182,49,8,195,183,38,86,111,160,165,90,150,93,154,169,216,158,48,134,156,17,99,140,127,81,55,123,197,226,16,12,70,82,97,113,125,112,151,72,60,179,23,167,103,202,212,213,18,138,194,46,47,198,199,68,121,122,131,130,105,223,152,157,102,221,147,148,185,11,173,164,163,119,43,56,57,84,98,174,53,20,229,44,114,1,218,120,52,91,104,65,206
